21° run output:
{
    "Function": "ClusterB300.tsp",
    "Problem dimension": [
        80,
        140,
        125,
        170,
        260,
        172,
        98,
        9,
        57,
        114,
        26,
        276,
        148,
        60,
        157,
        203,
        30,
        85,
        45,
        238,
        106,
        285,
        182,
        177,
        2,
        243,
        99,
        189,
        216,
        76,
        171,
        110,
        293,
        258,
        230,
        257,
        150,
        145,
        43,
        136,
        253,
        261,
        41,
        129,
        280,
        250,
        91,
        90,
        40,
        27,
        164,
        207,
        169,
        117,
        284,
        58,
        25,
        237,
        82,
        124,
        205,
        274,
        46,
        219,
        133,
        33,
        233,
        34,
        66,
        259,
        282,
        179,
        31,
        218,
        267,
        3,
        194,
        161,
        247,
        224,
        96,
        270,
        17,
        193,
        137,
        139,
        134,
        48,
        209,
        162,
        265,
        108,
        126,
        103,
        279,
        252,
        71,
        242,
        246,
        119,
        122,
        154,
        55,
        268,
        166,
        185,
        28,
        220,
        290,
        254,
        12,
        236,
        288,
        51,
        197,
        62,
        118,
        109,
        107,
        49,
        222,
        64,
        35,
        100,
        59,
        94,
        77,
        104,
        173,
        215,
        93,
        183,
        29,
        272,
        16,
        295,
        89,
        191,
        115,
        147,
        6,
        72,
        264,
        187,
        144,
        54,
        112,
        101,
        226,
        123,
        121,
        283,
        269,
        163,
        120,
        186,
        199,
        278,
        206,
        73,
        8,
        32,
        188,
        69,
        21,
        299,
        211,
        266,
        281,
        190,
        149,
        70,
        228,
        19,
        155,
        251,
        231,
        152,
        297,
        81,
        273,
        65,
        229,
        192,
        244,
        239,
        22,
        198,
        37,
        131,
        249,
        212,
        232,
        262,
        68,
        271,
        200,
        7,
        97,
        0,
        78,
        146,
        86,
        15,
        67,
        213,
        255,
        184,
        56,
        195,
        18,
        178,
        39,
        127,
        227,
        24,
        176,
        221,
        294,
        208,
        286,
        141,
        74,
        156,
        1,
        105,
        87,
        298,
        88,
        153,
        95,
        196,
        160,
        165,
        44,
        291,
        287,
        168,
        52,
        132,
        214,
        14,
        225,
        102,
        289,
        50,
        158,
        20,
        174,
        275,
        61,
        63,
        38,
        143,
        202,
        116,
        47,
        138,
        223,
        83,
        111,
        10,
        75,
        180,
        23,
        175,
        235,
        128,
        241,
        234,
        159,
        42,
        296,
        292,
        240,
        263,
        84,
        217,
        36,
        135,
        256,
        5,
        13,
        167,
        79,
        4,
        11,
        142,
        151,
        248,
        113,
        201,
        130,
        277,
        181,
        92,
        53,
        245,
        204,
        210
    ],
    "Global Optimum": 0,
    "Algorithm": "Genetic algorithm",
    "Parameters": {
        "population": 30,
        "offspring": 30,
        "mutation probability": 0.0033333333333333335,
        "crossover probability": 0.9
    },
    "Fitness": 385076,
    "Solution": [
        80,
        140,
        125,
        170,
        260,
        172,
        98,
        9,
        57,
        114,
        26,
        276,
        148,
        60,
        157,
        203,
        30,
        85,
        45,
        238,
        106,
        285,
        182,
        177,
        2,
        243,
        99,
        189,
        216,
        76,
        171,
        110,
        293,
        258,
        230,
        257,
        150,
        145,
        43,
        136,
        253,
        261,
        41,
        129,
        280,
        250,
        91,
        90,
        40,
        27,
        164,
        207,
        169,
        117,
        284,
        58,
        25,
        237,
        82,
        124,
        205,
        274,
        46,
        219,
        133,
        33,
        233,
        34,
        66,
        259,
        282,
        179,
        31,
        218,
        267,
        3,
        194,
        161,
        247,
        224,
        96,
        270,
        17,
        193,
        137,
        139,
        134,
        48,
        209,
        162,
        265,
        108,
        126,
        103,
        279,
        252,
        71,
        242,
        246,
        119,
        122,
        154,
        55,
        268,
        166,
        185,
        28,
        220,
        290,
        254,
        12,
        236,
        288,
        51,
        197,
        62,
        118,
        109,
        107,
        49,
        222,
        64,
        35,
        100,
        59,
        94,
        77,
        104,
        173,
        215,
        93,
        183,
        29,
        272,
        16,
        295,
        89,
        191,
        115,
        147,
        6,
        72,
        264,
        187,
        144,
        54,
        112,
        101,
        226,
        123,
        121,
        283,
        269,
        163,
        120,
        186,
        199,
        278,
        206,
        73,
        8,
        32,
        188,
        69,
        21,
        299,
        211,
        266,
        281,
        190,
        149,
        70,
        228,
        19,
        155,
        251,
        231,
        152,
        297,
        81,
        273,
        65,
        229,
        192,
        244,
        239,
        22,
        198,
        37,
        131,
        249,
        212,
        232,
        262,
        68,
        271,
        200,
        7,
        97,
        0,
        78,
        146,
        86,
        15,
        67,
        213,
        255,
        184,
        56,
        195,
        18,
        178,
        39,
        127,
        227,
        24,
        176,
        221,
        294,
        208,
        286,
        141,
        74,
        156,
        1,
        105,
        87,
        298,
        88,
        153,
        95,
        196,
        160,
        165,
        44,
        291,
        287,
        168,
        52,
        132,
        214,
        14,
        225,
        102,
        289,
        50,
        158,
        20,
        174,
        275,
        61,
        63,
        38,
        143,
        202,
        116,
        47,
        138,
        223,
        83,
        111,
        10,
        75,
        180,
        23,
        175,
        235,
        128,
        241,
        234,
        159,
        42,
        296,
        292,
        240,
        263,
        84,
        217,
        36,
        135,
        256,
        5,
        13,
        167,
        79,
        4,
        11,
        142,
        151,
        248,
        113,
        201,
        130,
        277,
        181,
        92,
        53,
        245,
        204,
        210
    ],
    "Nb of functions evaluations": 50010,
    "Computational time in seconds": 143.07892441749573,
    "Stopping criterion in evaluations": 50000
}